Tried aggregator 1 time.
Reduced MIP has 2109 rows, 640195 columns, and 2439067 nonzeros.
Reduced MIP has 640195 binaries, 0 generals, 0 SOSs, and 0 indicators.
Presolve time = 2.08 sec. (829.92 ticks)
Tried aggregator 1 time.
Reduced MIP has 2109 rows, 640195 columns, and 2439067 nonzeros.
Reduced MIP has 640195 binaries, 0 generals, 0 SOSs, and 0 indicators.
Presolve time = 2.08 sec. (832.36 ticks)
Probing time = 1.02 sec. (157.86 ticks)
Clique table members: 1938.
MIP emphasis: balance optimality and feasibility.
MIP search method: dynamic search.
Parallel mode: deterministic, using up to 6 threads.
Root relaxation solution time = 20.23 sec. (22123.93 ticks)

        Nodes                                         Cuts/
   Node  Left     Objective  IInf  Best Integer    Best Bound    ItCnt     Gap

*     0+    0                      1.28625e+007 -4.66314e+009              --- 
*     0+    0                      1.28422e+007 -4.66314e+009              --- 
      0     0 -6354673.3333    72  1.28422e+007 -6354673.3333       30  149.48%
      0     0 -6354656.9476   111  1.28422e+007    MIRcuts: 2      709  149.48%
      0     0 -6354645.5247   294  1.28422e+007    MIRcuts: 3     1185  149.48%
      0     2 -6354645.5247   294  1.28422e+007 -6354645.5247     1185  149.48%
Elapsed time = 76.66 sec. (69328.69 ticks, tree = 0.01 MB, solutions = 2)
      1     3  -363622.2702    85  1.28422e+007 -6354645.5247    33085  149.48%
      2     4 -3179654.0000    14  1.28422e+007 -6354645.5247    40498  149.48%
      3     5 -2158418.8333   108  1.28422e+007 -3179654.0000    44027  124.76%
      4     6    19624.0000    14  1.28422e+007 -3179654.0000    45362  124.76%
*     5+    5                      9352065.0000 -3179654.0000           134.00%
*     5+    5                      9236087.0000 -3179654.0000           134.43%
      5     7  9236065.9667    36  9236087.0000 -3179654.0000    66906  134.43%
      6     8 -3179654.0000    14  9236087.0000 -3179654.0000    66966  134.43%
      7     9    23720.0000    14  9236087.0000 -3179654.0000    66979  134.43%
      8    10  5958573.6875    56  9236087.0000 -3179654.0000    75337  134.43%
      9    11  1044486.8571    78  9236087.0000 -3179654.0000    87769  134.43%
     10    12  2682219.8571   110  9236087.0000 -3179654.0000    95260  134.43%
Elapsed time = 220.73 sec. (209872.26 ticks, tree = 0.26 MB, solutions = 4)
     20    22 -3177606.0000    14  9236087.0000 -3179654.0000    97139  134.43%
     21    23    25768.0000    14  9236087.0000 -3179654.0000    97152  134.43%
     22    24  9236066.2917    52  9236087.0000 -3179654.0000    97352  134.43%
     23    25  5958573.6875   100  9236087.0000 -3179654.0000    97375  134.43%
     24    26  5958573.7727    70  9236087.0000 -3179654.0000    97747  134.43%
     25    27 -3049050.0000    22  9236087.0000 -3179654.0000    99834  134.43%
     26    28    25839.0000     1  9236087.0000 -3179654.0000    99955  134.43%
     27    29  9236066.3043    60  9236087.0000 -3179654.0000   100005  134.43%
     28    30  5958573.8000    54  9236087.0000 -3179654.0000   100079  134.43%
     29    31  5958573.8000    54  9236087.0000 -3179654.0000   100111  134.43%
Elapsed time = 367.78 sec. (247669.90 ticks, tree = 0.26 MB, solutions = 4)
     30    32 -3176582.0000    10  9236087.0000 -3179654.0000   100127  134.43%
     31    33   226592.2500    60  9236087.0000 -3179654.0000   103582  134.43%
     33    35  5958573.8000    48  9236087.0000 -3179654.0000   103906  134.43%
     34    36    25839.0000     1  9236087.0000 -3179654.0000   103909  134.43%
     35    37  5958573.8000    48  9236087.0000 -3179654.0000   104623  134.43%
     36    38  5958573.8000    22  9236087.0000 -3179654.0000   104926  134.43%
     37    39    25839.0000     1  9236087.0000 -3179654.0000   104927  134.43%
     38    40  5958573.9286    30  9236087.0000 -3179654.0000   105349  134.43%
     39    41  5958573.8462    36  9236087.0000 -3179654.0000   105431  134.43%
     40    42  5958574.0000    26  9236087.0000 -3179654.0000   105887  134.43%
Elapsed time = 367.78 sec. (263638.46 ticks, tree = 0.26 MB, solutions = 4)
     42    44  5958574.0323    60  9236087.0000 -3179654.0000   107252  134.43%
     44    46  5958574.1739    48  9236087.0000 -3179654.0000   107430  134.43%
     45    47  5958573.8857    86  9236087.0000 -3179654.0000   107494  134.43%
     46    48  5958574.0000    56  9236087.0000 -3179654.0000   107568  134.43%
     47    49  5958574.0385    76  9236087.0000 -3179654.0000   107658  134.43%
     48    50  5958574.3333    94  9236087.0000 -3179654.0000   107869  134.43%
     49    51  5958574.0476    38  9236087.0000 -3179654.0000   107880  134.43%
     50    52  5958574.0741    28  9236087.0000 -3179654.0000   107913  134.43%
     51    53  5958574.0741    56  9236087.0000 -3179654.0000   107918  134.43%
     52    54  5958574.2308    22  9236087.0000 -3179654.0000   107967  134.43%
Elapsed time = 367.78 sec. (272214.10 ticks, tree = 0.26 MB, solutions = 4)
     54    56  5958574.7826    64  9236087.0000 -3179654.0000   108265  134.43%
     55    57 -3176582.0000    10  9236087.0000 -3176582.0000   108266  134.39%
     56    58    25839.0000     1  9236087.0000 -3176582.0000   108267  134.39%
     57    59  9236066.3200    62  9236087.0000 -3176582.0000   108282  134.39%
     58    60  5958574.1739   122  9236087.0000 -3176582.0000   108293  134.39%
     59    61  5958574.2727    46  9236087.0000 -3176582.0000   108300  134.39%
     60    62  9236066.2326    76  9236087.0000 -3176582.0000   108303  134.39%
     61    63 -3176582.0000    10  9236087.0000 -3176582.0000   108309  134.39%
*    62+   54                        25839.0000 -3176582.0000              --- 
     62    53    25839.0000     1    25839.0000 -3176582.0000   108310     --- 
     63    54  9236066.3182    50    25839.0000 -3176582.0000   108349     --- 
Elapsed time = 372.16 sec. (320979.53 ticks, tree = 0.26 MB, solutions = 4)
     64    55  5958574.4390    80    25839.0000 -3176582.0000   108512     --- 
     65    56  5958574.2800    64    25839.0000 -3176582.0000   108555     --- 
     67    58 -3176582.0000    10    25839.0000 -3176582.0000   108586     --- 
     70    61  5958574.4681    90    25839.0000 -3176582.0000   108629     --- 
     71    62  5958574.6000    40    25839.0000 -3176582.0000   108727     --- 
     73    64 -3176582.0000    10    25839.0000 -3176582.0000   108743     --- 
     76    67  5958574.6000    78    25839.0000 -3176582.0000   108875     --- 
     77    68  5958574.6667    40    25839.0000 -3176582.0000   108966     --- 
     79    70 -3176582.0000    10    25839.0000 -3176582.0000   108977     --- 
*    80    68      integral     0 -3049050.0000 -3176582.0000   109021    4.18%
     80    67 -3049050.0000     0 -3049050.0000 -3176582.0000   109021    4.18%
Elapsed time = 470.58 sec. (322352.11 ticks, tree = 0.26 MB, solutions = 4)
     82    69  5958574.6000    18 -3049050.0000 -3176582.0000   109107    4.18%
     83    70  5958574.6923     8 -3049050.0000 -3176582.0000   109167    4.18%
     87    74  5958574.6000    62 -3049050.0000 -3176582.0000   109252    4.18%
     88    75  5958574.7059    36 -3049050.0000 -3176582.0000   109287    4.18%
     92    79  5958574.6000    44 -3049050.0000 -3176582.0000   109381    4.18%
     93    80  5958575.0741    44 -3049050.0000 -3176582.0000   109594    4.18%
     97    84  5958574.6000   104 -3049050.0000 -3176582.0000   109762    4.18%
     98    85  5958574.7143    14 -3049050.0000 -3176582.0000   109768    4.18%
    102    89  5958574.6667    34 -3049050.0000 -3176582.0000   110022    4.18%
    103    90  5958574.7174    72 -3049050.0000 -3176582.0000   110037    4.18%
Elapsed time = 481.59 sec. (357466.14 ticks, tree = 0.26 MB, solutions = 4)
    108    95  5958575.2105    74 -3049050.0000 -3176582.0000   110251    4.18%
    113   100  5958574.7200    80 -3049050.0000 -3176582.0000   110374    4.18%
    117   104  5958574.6818    58 -3049050.0000 -3176582.0000   110494    4.18%
    118   105  5958575.2000    36 -3049050.0000 -3176582.0000   110686    4.18%
    122    92  5958575.0000     0 -3049050.0000 -3176582.0000   110777    4.18%
    123    93  5958575.2000    10 -3049050.0000 -3176582.0000   110862    4.18%
*   125    79      integral     0 -3172580.0000 -3176582.0000   110989    0.13%
    127    81 -2158418.0000    52 -3172580.0000 -3176582.0000   111139    0.13%
    128    82  5958575.2308    46 -3172580.0000 -3176582.0000   111231    0.13%
    132    84 -2158418.0000    44 -3172580.0000 -3176582.0000   111259    0.13%
    133    85  5958575.2500    68 -3172580.0000 -3176582.0000   111405    0.13%
Elapsed time = 489.92 sec. (363567.94 ticks, tree = 0.26 MB, solutions = 4)
    152    83 -2158417.4286    58 -3172580.0000 -3176582.0000   112132    0.13%
    157    79 -2158417.0000    24 -3172580.0000 -3176582.0000   112272    0.13%
    158    80  5958575.8182    26 -3172580.0000 -3176582.0000   112435    0.13%
    161    83 -2158417.0000    80 -3172580.0000 -3176582.0000   112470    0.13%
    162    70 -1.00000e+075     0 -3172580.0000 -3176582.0000   112558    0.13%
    162    69  5958576.0000     0 -3172580.0000 -3176582.0000   112558    0.13%
*   164+   60                     -3176550.0000 -3176582.0000             0.00%
    164    61 -2158416.0000    74 -3176550.0000 -3176582.0000   112790    0.00%
    165    62 -2158418.8000    66 -3176550.0000 -3176582.0000   112811    0.00%
    167    64 -2158415.8889    64 -3176550.0000 -3176582.0000   112887    0.00%
    168    65 -2158418.8000    86 -3176550.0000 -3176582.0000   112889    0.00%
    170    67 -2158415.8000    44 -3176550.0000 -3176582.0000   112895    0.00%
Elapsed time = 529.02 sec. (368977.84 ticks, tree = 0.26 MB, solutions = 4)
    179    76 -2158414.0000    18 -3176550.0000 -3176582.0000   113451    0.00%
    187    53  1044558.1429   140 -3176550.0000 -3176582.0000   117172    0.00%
    189    53  1044558.2000    60 -3176550.0000 -3176582.0000   117220    0.00%
    190    54  1318307.8113   157 -3176550.0000 -3176582.0000   125667    0.00%

Mixed integer rounding cuts applied:  3

Root node processing (before b&c):
  Real time             =   71.98 sec. (67706.08 ticks)
Parallel b&c, 6 threads:
  Real time             =  457.61 sec. (325969.05 ticks)
  Sync time (average)   =  193.20 sec.
  Wait time (average)   =  193.32 sec.
                          ------------
Total (root+branch&cut) =  529.59 sec. (393675.13 ticks)
